0 4 0 7 0 0 0 0 0 9 0 0 0 0 0 0 0 9 0 0 0 0 0 0 0 0 0 0 0 0 9 0 0 8 0 0 0 0 0 10 0 0 5 0 0 0 0 0 0 0
0 0 7 0 2 0 2 0 0 0 0 0 3 0 0 0 6 0 0 0 0 0 0 0 0 0 5 0 0 0 0 0 0 0 0 0 0 0 0 0 0 0 0 9 0 0 0 0 4 0
0 0 0 3 0 0 0 0 0 0 0 0 0 0 0 0 10 0 0 0 0 0 9 0 0 0 0 0 0 2 0 0 5 0 0 0 5 0 0 0 0 0 0 0 0 7 7 0 4 0
0 0 0 0 8 0 4 6 8 0 0 0 0 5 0 0 0 0 0 0 0 10 0 1 7 7 0 0 0 0 0 0 0 0 0 1 0 0 0 0 5 0 0 0 0 0 6 0 0 1
6 0 10 0 0 3 1 0 0 10 0 0 0 0 0 0 0 0 0 0 0 0 0 0 0 0 6 0 0 0 4 7 0 0 0 0 8 0 0 0 0 0 0 0 0 0 0 0 0 0
0 0 10 0 0 0 5 0 0 0 0 0 0 0 3 0 0 0 0 0 0 0 10 0 0 0 0 5 0 0 0 0 0 0 0 0 5 0 0 0 0 5 0 0 0 0 0 0 0 0
0 0 0 0 0 5 0 2 0 0 0 0 0 0 0 0 0 0 0 0 9 0 0 1 0 0 0 0 0 3 0 7 0 0 0 0 0 0 0 0 0 9 0 0 0 0 0 8 0 0
0 0 1 0 0 0 0 0 9 2 0 0 0 0 0 0 0 9 8 0 0 0 0 0 0 0 0 0 0 0 0 0 0 0 0 0 0 0 7 0 0 0 3 0 0 0 0 9 0 0
0 0 0 0 0 0 0 0 0 6 0 9 0 0 0 0 9 0 0 0 0 8 0 0 0 0 0 0 0 0 0 0 0 0 0 0 7 0 0 1 0 0 0 0 6 0 0 1 0 0
0 0 0 3 0 0 0 0 0 0 5 0 0 0 0 0 0 0 0 2 0 0 0 0 0 0 0 0 0 0 0 0 0 0 0 0 0 0 0 7 0 0 0 1 0 5 0 6 0 0
0 0 0 0 0 0 0 0 7 0 0 2 0 1 0 0 0 0 5 0 0 0 0 0 0 0 0 0 2 0 0 0 0 0 8 0 0 0 0 7 9 0 6 0 0 0 0 2 0 7
0 0 0 0 1 0 0 0 0 0 0 0 4 0 0 0 0 0 0 0 0 0 9 0 0 0 7 0 0 0 0 0 0 0 0 0 6 0 0 0 0 0 0 0 0 0 0 0 3 0
0 0 0 0 0 3 0 0 2 0 0 0 0 1 0 0 0 0 0 0 0 0 2 4 0 0 0 0 0 6 4 0 0 0 0 0 0 0 6 0 7 6 0 0 0 0 2 3 1 0
0 0 0 0 0 0 0 0 2 0 0 0 6 0 4 7 0 0 1 0 0 10 0 0 3 0 9 0 0 0 0 0 0 0 0 0 0 0 0 0 0 0 2 0 0 0 0 9 0 0
0 5 1 0 0 0 0 0 0 0 0 0 0 0 0 7 0 0 0 0 0 0 0 0 0 0 4 0 0 0 0 10 1 6 0 0 0 0 0 1 0 0 4 8 7 0 10 9 0 0
0 0 0 0 0 0 0 0 9 0 0 0 5 0 0 0 3 0 0 0 3 0 0 0 0 5 0 5 5 0 0 0 0 0 0 0 0 0 2 0 0 0 0 10 0 6 0 5 0 0
0 2 0 0 0 10 7 0 0 0 0 0 0 0 0 0 0 4 0 3 6 0 7 0 3 0 4 0 0 0 3 6 0 0 0 0 0 3 0 0 0 0 0 0 0 9 0 0 0 0
0 0 2 0 0 0 0 0 0 0 0 8 4 7 0 0 0 0 1 0 9 0 0 0 0 0 0 0 0 0 0 0 7 0 0 0 0 10 0 0 0 0 0 0 0 0 6 0 0 2
0 0 0 0 0 0 0 0 0 0 0 0 0 0 0 0 0 0 0 7 0 0 0 0 0 10 0 5 7 3 0 0 0 0 0 0 8 0 0 0 2 0 0 8 0 0 0 9 0 0
0 0 0 0 0 8 0 0 0 7 7 0 0 0 7 0 0 0 7 0 1 0 0 0 0 0 6 0 0 0 0 4 0 0 0 0 0 0 0 0 0 0 0 0 0 0 0 0 0 0
0 0 0 0 5 0 0 0 0 8 0 0 0 0 0 0 1 7 0 0 0 3 9 0 0 0 0 0 0 0 9 0 0 0 0 0 0 0 0 0 0 0 5 0 0 0 0 0 0 0
0 1 0 0 6 10 0 0 0 0 1 0 0 0 0 0 0 0 0 0 0 0 5 0 0 8 0 2 0 0 0 8 0 0 0 0 0 10 0 0 0 3 2 0 0 0 0 0 0 0
0 7 0 10 0 5 3 0 0 0 9 0 0 4 0 0 6 0 0 0 0 0 0 9 0 0 5 0 1 0 0 0 6 0 0 10 2 0 9 0 0 0 0 0 0 0 0 1 0 0
0 3 0 0 0 0 0 0 0 0 0 0 0 7 0 0 0 9 5 0 0 0 0 0 6 0 8 0 1 0 0 0 0 0 0 0 0 0 0 0 0 0 0 0 0 0 0 0 9 0
0 0 0 0 0 0 0 0 0 4 0 4 0 0 0 0 0 0 0 2 9 0 4 7 0 6 8 0 0 0 0 0 10 0 0 0 0 0 0 0 0 0 1 0 0 0 0 0 2 0
0 7 1 9 0 0 0 0 0 0 0 0 0 0 7 4 0 7 6 3 2 0 0 10 9 0 3 0 0 0 0 10 0 0 0 9 0 0 0 0 0 0 3 0 5 0 0 0 0 0
0 6 7 0 0 0 0 0 0 4 0 0 0 0 0 0 0 8 0 0 0 0 8 0 0 0 0 8 0 0 0 6 0 0 0 0 0 6 0 0 0 0 0 4 0 0 0 0 0 0
0 0 0 0 8 0 0 0 0 0 0 0 0 0 7 0 0 0 0 0 10 9 0 0 0 0 0 0 8 0 0 0 0 3 0 0 0 0 0 1 0 0 2 5 0 0 0 0 3 0
0 10 4 0 0 0 4 0 0 0 0 0 0 0 0 0 0 0 0 2 0 0 0 10 6 0 1 0 0 3 0 0 0 0 0 0 0 0 2 0 0 0 0 0 0 4 0 0 0 0
0 0 3 0 9 0 0 0 0 0 0 10 0 0 0 0 0 0 1 0 0 0 0 0 0 0 0 0 0 0 9 0 4 0 0 10 0 0 5 0 6 5 0 0 0 0 0 0 1 0
0 0 0 0 0 0 0 7 0 0 2 0 0 4 0 0 0 0 0 0 0 0 0 0 0 8 0 0 0 0 0 7 0 0 0 0 0 0 0 0 0 0 5 0 0 0 0 8 0 0
0 7 0 1 0 0 0 0 0 0 0 0 0 0 0 0 0 0 0 0 0 10 0 0 0 0 0 0 4 0 0 0 3 0 0 0 0 0 5 0 0 0 0 0 0 0 10 0 7 0
0 0 0 0 0 0 0 0 3 0 9 0 0 0 0 0 0 4 0 0 0 0 0 8 6 0 1 0 1 0 0 0 0 5 0 0 0 0 0 0 10 0 0 0 6 0 0 0 5 0
0 0 0 0 0 5 0 0 0 9 0 0 0 5 0 0 3 2 0 0 0 0 0 0 0 0 0 0 0 0 0 0 4 0 5 9 1 0 0 0 0 0 0 0 0 0 6 0 0 2
0 0 0 0 0 0 2 0 0 0 0 0 0 0 7 0 8 0 6 0 0 0 0 0 0 0 6 0 0 0 0 0 0 0 0 6 0 0 5 0 0 0 0 0 4 0 0 2 0 0
0 0 0 0 5 0 0 0 0 0 0 0 0 1 0 0 0 0 6 0 0 0 0 3 0 0 0 0 0 0 6 0 0 0 0 0 2 0 8 0 0 0 3 0 7 0 0 0 0 5
0 0 0 0 0 0 0 0 7 0 1 0 0 0 0 0 0 3 0 0 0 8 1 0 0 0 0 0 0 0 0 7 0 0 0 0 0 4 0 0 0 10 0 7 0 1 0 0 0 0
7 0 0 0 7 0 0 0 0 0 0 0 0 0 0 0 0 0 0 0 0 0 0 0 0 0 0 0 0 0 0 0 0 3 0 0 0 0 7 10 0 0 0 0 0 0 0 0 5 8
0 0 0 6 0 0 0 0 0 8 0 3 0 10 0 2 10 10 0 9 0 0 4 0 0 10 0 0 0 10 0 1 0 0 0 0 8 0 0 9 0 0 0 0 0 0 2 0 3 0
0 0 0 0 0 0 0 0 0 1 3 0 0 0 0 9 0 0 0 0 0 0 0 0 0 0 0 0 0 2 0 0 0 0 0 0 0 0 0 0 9 0 9 0 0 1 0 4 0 0
0 0 0 8 0 0 7 8 0 0 0 0 0 0 1 2 0 5 1 0 0 0 0 0 0 0 0 0 0 0 0 0 0 0 2 4 0 0 0 8 0 4 0 0 0 0 0 0 0 0
9 0 0 3 0 0 0 0 0 5 0 0 0 0 0 0 0 0 2 0 0 0 0 0 6 10 0 0 6 0 0 0 0 0 6 0 0 0 0 0 0 0 4 9 0 0 0 9 7 0
9 0 0 9 0 0 0 0 5 0 0 0 0 0 0 0 0 0 0 0 0 0 0 0 0 0 0 0 0 0 9 0 10 0 8 0 0 0 0 0 0 0 0 3 0 0 0 8 0 0
3 0 0 0 0 0 0 4 0 0 0 6 8 6 1 0 0 8 0 3 0 0 0 0 0 3 0 8 0 6 0 0 0 0 0 0 1 0 0 0 0 0 0 0 1 4 9 0 0 0
0 0 0 0 0 0 0 0 0 0 0 6 0 0 0 8 0 0 0 0 8 0 2 0 0 0 0 0 0 0 0 0 3 0 0 0 0 0 1 0 0 0 0 0 0 4 0 0 0 0
0 6 0 0 0 0 0 0 0 0 0 0 0 7 0 0 0 0 0 0 0 6 0 5 0 0 10 0 0 2 0 0 0 0 0 0 0 0 1 0 0 0 0 0 0 0 5 0 0 0
0 0 0 0 0 0 0 0 0 0 0 0 0 9 0 0 0 0 0 0 0 0 1 0 8 0 0 0 0 0 4 0 0 0 0 0 0 0 4 0 0 0 0 0 0 0 0 5 0 0
0 0 0 0 0 0 2 1 0 0 0 0 3 10 0 0 8 0 0 0 0 8 7 1 0 0 0 0 10 0 0 0 8 0 10 0 9 0 0 0 0 0 0 0 0 0 0 0 2 0
0 10 0 4 0 0 0 0 0 0 3 0 0 0 0 2 1 0 7 0 0 0 0 0 0 0 0 0 0 2 0 0 0 0 0 0 0 0 0 0 0 0 9 0 0 0 0 0 0 9
7 6 0 0 0 6 0 8 9 5 0 0 0 0 0 0 0 0 0 6 3 7 0 4 0 0 0 9 2 0 0 6 0 0 0 0 4 0 0 0 0 0 0 3 0 0 5 0 0 0